k1 = 
1 1 1 1 1 1 1 1 1 

k2 = 
1 1 1 1 1 1 1 1 1 

P =  
1 0 0 0 0 0 0 0 0 
0 0 0 1 0 0 0 0 0 
0 0 0 0 0 0 0 1 0 
0 1 0 0 0 0 0 0 0 
0 0 0 0 1 0 0 0 0 
0 0 0 0 0 0 1 0 0 
0 0 0 0 0 1 0 0 0 
0 0 1 0 0 0 0 0 0 
0 0 0 0 0 0 0 0 1 


Q =  
1 0 0 0 0 0 0 0 0 0 0 
0 1 0 0 0 0 0 0 0 0 0 
0 0 0 0 0 0 1 0 0 0 0 
0 0 0 0 0 0 0 0 1 0 0 
0 0 0 0 1 0 0 0 0 0 0 
0 0 0 0 0 0 0 1 0 0 0 
0 0 1 0 0 0 0 0 0 0 0 
0 0 0 0 0 1 0 0 0 0 0 
0 0 0 1 0 0 0 0 0 0 0 
0 0 0 0 0 0 0 0 0 1 0 
0 0 0 0 0 0 0 0 0 0 1 


----------
==========
%%%mzn-stat: objective=0
%%%mzn-stat: objectiveBound=0
%%%mzn-stat: boolVariables=0
%%%mzn-stat: failures=0
%%%mzn-stat: propagations=0
%%%mzn-stat: solveTime=0.050196
